c b=6,c=129
p cnf 19 25
6 -12 0
6 -19 0
-6 12 0
-6 19 0
5 -11 0
5 -18 0
-5 11 0
-5 18 0
4 -10 0
4 -17 0
-4 10 0
-4 17 0
3 -9 0
3 -16 0
-3 9 0
-3 16 0
2 -8 0
2 -15 0
-2 8 0
-2 15 0
1 -7 0
1 -14 0
-1 7 0
-1 14 0
-13 0
